
(set-logic ALL) 

(declare-datatype MyList ((Nil) (Cons (head Real) (tail MyList)) )) 
(declare-fun l0 () MyList) 
(declare-fun l1 () MyList) 
(declare-fun l2 () MyList) 
(declare-fun l3 () MyList) 
(declare-fun i0 () Real) 
(declare-fun i1 () Real) 
(assert (is-Cons Nil) )
(assert (is-Nil l3) )
(assert (is-Nil l3) )
(assert (= l1 Nil) )
(assert (not (= l0 Nil)) )
(assert (or (= l3 Nil) (= l0 Nil) (is-Nil l1) (= l1 Nil)) )
(assert (is-Cons Nil) )
(assert (is-Cons l2) )
(check-sat)
